r = [
0,81,50,39,53,109,38,24,52,69,33,0
];
p = [
0,7,13,28,9,8,26,1,7,4,29,0
];
e = [
0,6,5,2,4,3,15,2,19,6,9,0
];
d = [
0,127,63,69,62,117,64,25,59,73,62,133
];
d_bar = [
0,133,75,94,70,124,87,26,65,77,88,133
];
w = [
0,1,0.416666667,0.08,0.5,0.428571429,0.652173913,2,3.166666667,1.5,0.346153846,0
];
